NAME : prob5b
TYPE : PDTSP
DIMENSION : 11
EDGE_WEIGHT_TYPE : EUC_2D
NODE_COORD_SECTION
1 159 912
2 802 573
3 218 554
4 612 683
5 987 627
6 793 256
7 868 533
8 530 507
9 857 324
10 198 897
11 312 788
PICKUP_AND_DELIVERY_SECTION
1 0 0 0 0 0 0
2 0 0 0 0 7 0
3 0 0 0 0 8 0
4 0 0 0 0 9 0
5 0 0 0 0 10 0
6 0 0 0 0 11 0
7 0 0 0 0 0 2
8 0 0 0 0 0 3
9 0 0 0 0 0 4
10 0 0 0 0 0 5
11 0 0 0 0 0 6
DEPOT_SECTION
1 
-1
EOF
